set N := 1 2;

namespace c1 {
    param c :=
    1 1
    2 2 ;
}

namespace c2 {
    param c :=
    1 10
    2 20 ;
}

namespace data1 {
    set M := 1 2 ;

    param a :=
    1 1 3
    2 1 4
    1 2 2
    2 2 5 ;

    param b :=
    1 1
    2 2 ;
}

namespace data2 {
    set M := 5 6 ;

    param a :=
    1 5 3
    2 5 4
    1 6 2
    2 6 5 ;

    param b :=
    5 1
    6 2 ;
}
